PROBLEM NAME: eil51_n7
KNAPSACK DATA TYPE: multiple strongly correlated
DIMENSION: 7
NUMBER OF ITEMS: 30
CAPACITY OF KNAPSACK: 8015
MIN SPEED: 0.1
MAX SPEED: 1
RENTING RATIO: 20.50
EDGE_WEIGHT_TYPE: CEIL_2D
NODE_COORD_SECTION	(INDEX, X, Y):
1	42	57
2	7	38
3	30	48
4	45	35
5	5	6
6	56	37
7	30	40
ITEMS SECTION	(INDEX, PROFIT, WEIGHT, ASSIGNED NODE NUMBER):
1	1128	928	3
2	1092	792	3
3	1048	848	3
4	1013	813	3
5	990	790	3
6	973	773	7
7	953	753	7
8	952	752	7
9	910	710	7
10	882	682	7
11	852	652	2
12	847	647	2
13	805	605	2
14	775	575	2
15	688	488	2
16	677	477	5
17	593	393	5
18	574	374	5
19	573	373	5
20	564	364	5
21	564	264	4
22	553	353	4
23	534	234	4
24	445	245	4
25	442	242	4
26	425	225	6
27	312	112	6
28	311	111	6
29	270	70	6
30	250	50	6
